Minimize
 obj: 0 X_0_1
Subject To
 out_0:
  + 1 X_0_1 + 1 X_0_2 + 1 X_0_3 + 1 X_0_4
  = 1
 in_0:
  + 1 X_1_0 + 1 X_2_0 + 1 X_3_0 + 1 X_4_0
  = 1
 out_1:
  + 1 X_1_0 + 1 X_1_2 + 1 X_1_3 + 1 X_1_4
  = 1
 in_1:
  + 1 X_0_1 + 1 X_2_1 + 1 X_3_1 + 1 X_4_1
  = 1
 out_2:
  + 1 X_2_0 + 1 X_2_1 + 1 X_2_3 + 1 X_2_4
  = 1
 in_2:
  + 1 X_0_2 + 1 X_1_2 + 1 X_3_2 + 1 X_4_2
  = 1
 out_3:
  + 1 X_3_0 + 1 X_3_1 + 1 X_3_2 + 1 X_3_4
  = 1
 in_3:
  + 1 X_0_3 + 1 X_1_3 + 1 X_2_3 + 1 X_4_3
  = 1
 out_4:
  + 1 X_4_0 + 1 X_4_1 + 1 X_4_2 + 1 X_4_3
  = 1
 in_4:
  + 1 X_0_4 + 1 X_1_4 + 1 X_2_4 + 1 X_3_4
  = 1
 mtz_1_2:
  + 1 U1 - 1 U2 + 4 X_1_2
  <= 3
 mtz_1_3:
  + 1 U1 - 1 U3 + 4 X_1_3
  <= 3
 mtz_1_4:
  + 1 U1 - 1 U4 + 4 X_1_4
  <= 3
 mtz_2_1:
  + 1 U2 - 1 U1 + 4 X_2_1
  <= 3
 mtz_2_3:
  + 1 U2 - 1 U3 + 4 X_2_3
  <= 3
 mtz_2_4:
  + 1 U2 - 1 U4 + 4 X_2_4
  <= 3
 mtz_3_1:
  + 1 U3 - 1 U1 + 4 X_3_1
  <= 3
 mtz_3_2:
  + 1 U3 - 1 U2 + 4 X_3_2
  <= 3
 mtz_3_4:
  + 1 U3 - 1 U4 + 4 X_3_4
  <= 3
 mtz_4_1:
  + 1 U4 - 1 U1 + 4 X_4_1
  <= 3
 mtz_4_2:
  + 1 U4 - 1 U2 + 4 X_4_2
  <= 3
 mtz_4_3:
  + 1 U4 - 1 U3 + 4 X_4_3
  <= 3
 obj1:
  + 422 X_0_1 + 356 X_0_2 + 394 X_0_3 + 158 X_0_4 + 422 X_1_0 + 146 X_1_2 + 813 X_1_3 + 275 X_1_4
  + 356 X_2_0 + 146 X_2_1 + 724 X_2_3 + 197 X_2_4 + 394 X_3_0 + 813 X_3_1 + 724 X_3_2 + 538 X_3_4
  + 158 X_4_0 + 275 X_4_1 + 197 X_4_2 + 538 X_4_3
  <= 1
 obj2:
  + 956 X_0_1 + 775 X_0_2 + 596 X_0_3 + 398 X_0_4 + 956 X_1_0 + 504 X_1_2 + 739 X_1_3 + 742 X_1_4
  + 775 X_2_0 + 504 X_2_1 + 286 X_2_3 + 404 X_2_4 + 596 X_3_0 + 739 X_3_1 + 286 X_3_2 + 200 X_3_4
  + 398 X_4_0 + 742 X_4_1 + 404 X_4_2 + 200 X_4_3
  <= 2
 obj3:
  + 268 X_0_1 + 501 X_0_2 + 1031 X_0_3 + 496 X_0_4 + 268 X_1_0 + 273 X_1_2 + 806 X_1_3 + 260 X_1_4
  + 501 X_2_0 + 273 X_2_1 + 816 X_2_3 + 362 X_2_4 + 1031 X_3_0 + 806 X_3_1 + 816 X_3_2 + 545 X_3_4
  + 496 X_4_0 + 260 X_4_1 + 362 X_4_2 + 545 X_4_3
  <= 3
Bounds
 1 <= U1 <= 4
 1 <= U2 <= 4
 1 <= U3 <= 4
 1 <= U4 <= 4
Binary
 X_0_1
 X_0_2
 X_0_3
 X_0_4
 X_1_0
 X_1_2
 X_1_3
 X_1_4
 X_2_0
 X_2_1
 X_2_3
 X_2_4
 X_3_0
 X_3_1
 X_3_2
 X_3_4
 X_4_0
 X_4_1
 X_4_2
 X_4_3
End
